1111100 AB
360 378 396 414 434 454 474 494 514 534 554 574 594 614 634 654 674 694 714 734 754 774 794 814 834 854 874 894 914 934 954 974 994 1014 1034 1054 1074 1094 1113 1132 1152 1172 1192 1232 1270
1111100 BA
376 394 412 431 452 472 492 512 532 552 572 592 612 632 652 672 692 712 732 752 772 792 812 832 852 872 892 912 932 952 972 992 1012 1032 1052 1072 1092 1111 1130 1149 1169 1189 1209 1249 1286
0000011 AB
360 396 434 474 514 550 590 610 630 650 670 690 710 730 770 810 850 890 930 970 1010 1030 1050 1070 1090 1110 1150 1190 1230 1270
0000011 BA
376 412 452 492 532 568 608 628 648 668 688 708 728 748 788 828 868 908 948 988 1028 1048 1068 1088 1108 1128 1168 1208 1248 1286
